p td 109 166
1 72
1 73
1 2
2 72
2 73
3 96
3 91
3 4
4 96
4 91
5 78
5 6
5 53
6 78
6 53
7 8
7 92
7 87
8 87
8 92
9 10
9 11
9 12
9 103
10 11
10 12
10 103
11 12
11 103
12 103
13 40
13 104
13 14
14 40
14 104
15 16
15 51
15 52
16 51
16 52
17 18
17 60
17 86
18 60
18 86
19 20
19 61
19 69
20 69
20 61
21 32
21 22
21 31
22 32
22 31
23 24
23 27
23 28
24 27
24 28
25 26
25 45
25 47
26 45
26 47
27 28
29 106
29 107
29 30
30 106
30 107
31 32
33 34
33 101
33 79
34 101
34 79
35 98
35 36
35 39
36 98
36 39
37 90
37 46
37 38
38 90
38 46
39 98
40 104
41 80
41 42
41 50
42 80
42 50
43 81
43 82
43 44
44 81
44 82
45 47
46 90
48 64
48 49
48 89
49 89
49 64
50 80
51 52
53 78
54 99
54 95
54 55
55 99
55 95
56 57
56 74
56 75
57 74
57 75
58 59
58 100
58 93
59 100
59 93
60 86
61 69
62 65
62 66
62 63
63 65
63 66
64 89
65 66
67 105
67 83
67 68
68 105
68 83
70 88
70 97
70 71
71 88
71 97
72 73
74 75
76 108
76 77
76 94
77 108
77 94
79 101
81 82
83 105
84 85
84 102
84 109
85 109
85 102
87 92
88 97
91 96
93 100
94 108
95 99
102 109
106 107
